p cnf 230 432               
-8 -7 -19 0
19 -21 0
7 8 -20 0
20 -21 0
21 -37 0
-10 -9 -22 0
22 -24 0
9 10 -23 0
23 -24 0
24 -37 0
-12 -11 -25 0
25 -27 0
11 12 -26 0
26 -27 0
27 -37 0
-14 -13 -28 0
28 -30 0
13 14 -29 0
29 -30 0
30 -37 0
-16 -15 -31 0
31 -33 0
15 16 -32 0
32 -33 0
33 -37 0
-18 -17 -34 0
34 -36 0
17 18 -35 0
35 -36 0
36 -37 0
37 -190 0
11 60 0
-15 60 0
-11 15 -60 0
12 61 0
-16 61 0
-12 16 -61 0
13 62 0
-17 62 0
-13 17 -62 0
14 63 0
-18 63 0
-14 18 -63 0
-60 -61 -62 -63 64 0
15 65 0
-11 65 0
16 66 0
-12 66 0
17 67 0
-13 67 0
18 68 0
-14 68 0
-65 -66 -67 -68 69 0
-64 -69 70 0
-70 -71 0
7 49 0
-15 49 0
8 50 0
-16 50 0
9 51 0
-17 51 0
10 52 0
-18 52 0
-49 -50 -51 -52 53 0
15 54 0
-7 54 0
16 55 0
-8 55 0
17 56 0
-9 56 0
18 57 0
-10 57 0
-54 -55 -56 -57 58 0
-53 -58 59 0
-59 -71 0
7 38 0
-11 38 0
-7 11 -38 0
8 39 0
-12 39 0
-8 12 -39 0
9 40 0
-13 40 0
-9 13 -40 0
10 41 0
-14 41 0
-10 14 -41 0
-38 -39 -40 -41 42 0
11 43 0
-7 43 0
12 44 0
-8 44 0
13 45 0
-9 45 0
14 46 0
-10 46 0
-43 -44 -45 -46 47 0
-42 -47 48 0
-48 -71 0
71 -190 0
-7 -72 0
8 -72 0
7 -8 72 0
-1 72 -73 0
1 -72 -73 0
72 -72 -73 0
73 -84 0
-9 -74 0
10 -74 0
9 -10 74 0
-2 74 -75 0
2 -74 -75 0
74 -74 -75 0
75 -84 0
-11 -76 0
12 -76 0
11 -12 76 0
-3 76 -77 0
3 -76 -77 0
76 -76 -77 0
77 -84 0
-13 -78 0
14 -78 0
13 -14 78 0
-4 78 -79 0
4 -78 -79 0
78 -78 -79 0
79 -84 0
-15 -80 0
16 -80 0
15 -16 80 0
-5 80 -81 0
5 -80 -81 0
80 -80 -81 0
81 -84 0
-17 -82 0
18 -82 0
17 -18 82 0
-6 82 -83 0
6 -82 -83 0
82 -82 -83 0
83 -84 0
84 -190 0
-9 -157 0
-7 -157 0
9 7 157 0
157 -159 0
8 -158 0
10 -158 0
-8 -10 158 0
158 -159 0
-157 -158 159 0
-2 -159 168 0
-168 174 0
-13 -160 0
-11 -160 0
13 11 160 0
160 -162 0
12 -161 0
14 -161 0
-12 -14 161 0
161 -162 0
-160 -161 162 0
-4 -162 170 0
-170 174 0
-17 -163 0
-15 -163 0
17 15 163 0
163 -165 0
16 -164 0
18 -164 0
-16 -18 164 0
164 -165 0
-163 -164 165 0
-6 -165 172 0
-172 174 0
-174 -179 0
159 162 165 -166 0
166 -179 0
-1 -159 167 0
-167 173 0
-3 -162 169 0
-169 173 0
-5 -165 171 0
-171 173 0
-173 -178 0
166 -178 0
179 178 188 0
-10 -85 0
-8 -85 0
85 -87 0
7 -86 0
9 -86 0
86 -87 0
-14 -88 0
-12 -88 0
88 -90 0
11 -89 0
13 -89 0
89 -90 0
-18 -91 0
-16 -91 0
91 -93 0
15 -92 0
17 -92 0
92 -93 0
87 90 93 -94 0
94 -104 0
2 -96 0
87 -96 0
4 -98 0
90 -98 0
6 -100 0
93 -100 0
96 98 100 -102 0
102 -104 0
94 -103 0
1 -95 0
87 -95 0
3 -97 0
90 -97 0
5 -99 0
93 -99 0
95 97 99 -101 0
101 -103 0
104 103 105 0
1 -119 0
-9 -109 0
-8 -109 0
9 8 109 0
109 -111 0
7 -110 0
10 -110 0
-7 -10 110 0
110 -111 0
-109 -110 111 0
111 -119 0
-1 -111 119 0
-119 125 0
3 -121 0
-13 -112 0
-12 -112 0
13 12 112 0
112 -114 0
11 -113 0
14 -113 0
-11 -14 113 0
113 -114 0
-112 -113 114 0
114 -121 0
-3 -114 121 0
-121 125 0
5 -123 0
-17 -115 0
-16 -115 0
17 16 115 0
115 -117 0
15 -116 0
18 -116 0
-15 -18 116 0
116 -117 0
-115 -116 117 0
117 -123 0
-5 -117 123 0
-123 125 0
119 121 123 -125 0
-125 -130 0
111 114 117 -118 0
118 -130 0
130 -132 0
2 -120 0
111 -120 0
-2 -111 120 0
-120 126 0
4 -122 0
114 -122 0
-4 -114 122 0
-122 126 0
6 -124 0
117 -124 0
-6 -117 124 0
-124 126 0
120 122 124 -126 0
-126 -131 0
118 -131 0
131 -132 0
1 -143 0
-10 -133 0
-7 -133 0
10 7 133 0
133 -135 0
8 -134 0
9 -134 0
-8 -9 134 0
134 -135 0
-133 -134 135 0
135 -143 0
-1 -135 143 0
-143 149 0
3 -145 0
-14 -136 0
-11 -136 0
14 11 136 0
136 -138 0
12 -137 0
13 -137 0
-12 -13 137 0
137 -138 0
-136 -137 138 0
138 -145 0
-3 -138 145 0
-145 149 0
5 -147 0
-18 -139 0
-15 -139 0
18 15 139 0
139 -141 0
16 -140 0
17 -140 0
-16 -17 140 0
140 -141 0
-139 -140 141 0
141 -147 0
-5 -141 147 0
-147 149 0
143 145 147 -149 0
-149 -154 0
135 138 141 -142 0
142 -154 0
154 -156 0
2 -144 0
135 -144 0
-2 -135 144 0
-144 150 0
4 -146 0
138 -146 0
-4 -138 146 0
-146 150 0
6 -148 0
141 -148 0
-6 -141 148 0
-148 150 0
144 146 148 -150 0
-150 -155 0
142 -155 0
155 -156 0
178 -180 0
179 -180 0
103 -181 0
104 -181 0
118 -127 0
125 -127 0
127 -183 0
118 -128 0
126 -128 0
128 -183 0
142 -151 0
149 -151 0
151 -185 0
142 -152 0
150 -152 0
152 -185 0
-188 -105 132 156 180 181 183 185 -189 0
189 -190 0
-1 3 -191 0
191 -209 0
-1 -3 192 0
1 3 192 0
-3 3 192 0
-2 4 -193 0
-192 193 -194 0
194 -209 0
-2 -4 195 0
2 4 195 0
-4 4 195 0
-192 -195 196 0
-196 38 -197 0
197 -209 0
-7 -11 198 0
7 11 198 0
-11 11 198 0
-196 -198 199 0
-199 39 -200 0
200 -209 0
-8 -12 201 0
8 12 201 0
-12 12 201 0
-199 -201 202 0
-202 40 -203 0
203 -209 0
-9 -13 204 0
9 13 204 0
-13 13 204 0
-202 -204 205 0
-205 41 -206 0
206 -209 0
209 -229 0
-3 5 -210 0
210 -228 0
-3 -5 211 0
3 5 211 0
-5 5 211 0
-4 6 -212 0
-211 212 -213 0
213 -228 0
-4 -6 214 0
4 6 214 0
-6 6 214 0
-211 -214 215 0
-215 60 -216 0
216 -228 0
-11 -15 217 0
11 15 217 0
-15 15 217 0
-215 -217 218 0
-218 61 -219 0
219 -228 0
-12 -16 220 0
12 16 220 0
-16 16 220 0
-218 -220 221 0
-221 62 -222 0
222 -228 0
-13 -17 223 0
13 17 223 0
-17 17 223 0
-221 -223 224 0
-224 63 -225 0
225 -228 0
228 -229 0
190 0
229 0
